# td am1

[No Title]

1 1
 C                  3.81679800   -1.90538000    0.52987600
 C                  5.00992600   -1.66713200   -0.16147000
 C                  5.21267500   -0.48131100   -0.86727100
 C                  4.22441000    0.50915600   -0.90457800
 C                  3.02725300    0.27277500   -0.21232800
 C                  2.83042300   -0.91105200    0.48964200
 N                  1.94571000    1.12283200   -0.13303400
 C                  0.93423800    0.67281600    0.58052300
 S                  1.26658900   -0.87855200    1.21869400
 C                 -0.20553000    1.34261200    0.78020100
 C                 -1.37614200    0.77923600    0.46421600
 S                 -2.68243700    1.40634400    0.63454000
 C                 -3.51152900    0.31960300    0.12435900
 C                 -2.75984100   -0.71869000   -0.25575000
 N                 -1.53027300   -0.48036900   -0.07102600
 C                 -4.84118800    0.26490100   -0.00441000
 C                 -5.41949100   -0.82997100   -0.50878300
 C                 -4.66751100   -1.86628000   -0.89335300
 C                 -3.33784700   -1.81164000   -0.76461000
 C                 -0.43283500   -1.40797100   -0.38100200
 C                  0.89743400   -0.76076600   -0.01900900
 C                  1.92201900    2.46154700   -0.80926100
 C                  0.59257600    3.14949300   -0.52847000
 H                  3.65870500   -2.84125600    1.08588300
 H                  5.80284900   -2.42942600   -0.14802600
 H                  6.16115500   -0.32252600   -1.40128600
 H                  4.38174700    1.44532900   -1.46029800
 H                 -0.18015500    2.35718700    1.20445600
 H                 -5.45935900    1.12068700    0.30461500
 H                 -6.51401000   -0.87808800   -0.60732800
 H                 -5.14275600   -2.76392300   -1.31570300
 H                 -2.71942700   -2.66589700   -1.07734700
 H                 -0.56163800   -2.34400700    0.20722800
 H                 -0.44526400   -1.64711700   -1.46793600
 H                  1.72835100   -1.46309300   -0.25370500
 H                  1.02623500    0.17527000   -0.60723900
 H                  0.90986100   -0.52162000    1.06792400
 H                  2.75379100    3.08905000   -0.41789900
 H                  2.04415600    2.32468900   -1.90704100
 H                  0.57499700    4.14281900   -1.03023000
 H                 -0.23919500    2.52199000   -0.91983100
 H                  0.47044000    3.28635000    0.56931000

