# am1 sp test

[No Title]

1 1
 C                 -0.87586700   -2.36110200   -3.30604000
 C                 -0.87591900   -3.76048600   -3.30606600
 C                 -1.00126600   -4.48394900   -2.12018100
 C                 -1.13135700   -3.82842400   -0.89036600
 C                 -1.13155100   -2.42547600   -0.88755100
 C                 -1.00630600   -1.70929200   -2.07260100
 N                 -1.24830800   -1.60890900    0.21617300
 C                 -1.22116600   -0.31737500   -0.04065100
 S                 -1.04396900   -0.02131300   -1.71558700
 C                 -1.31948400    0.63900200    0.88845900
 C                 -0.37152700    1.57684700    0.98538200
 S                 -0.36639000    2.66796800    1.95394300
 C                  0.88151200    3.30779200    1.55139000
 C                  1.44643500    2.65587900    0.52990100
 N                  0.74700700    1.65825600    0.18594400
 C                  1.47830700    4.38713700    2.06754800
 C                  2.63757200    4.81739500    1.55906800
 C                  3.20487200    4.16269100    0.54081600
 C                  2.60812800    3.08334000    0.02461400
 C                  1.07864000    0.72736500   -0.90234000
 C                 -0.00446800   -0.33814300   -1.00769200
 C                 -1.39542500   -2.15073000    1.60713900
 C                 -1.49985500   -0.99565300    2.59426800
 H                 -0.77681200   -1.79227400   -4.24232200
 H                 -0.77520600   -4.30010200   -4.25930900
 H                 -0.99783900   -5.58348800   -2.15184000
 H                 -1.23052300   -4.39651600    0.04635100
 H                 -2.18029300    0.65424900    1.57313000
 H                  1.01554100    4.92116600    2.91055500
 H                  3.12456900    5.71007400    1.97854000
 H                  4.16262500    4.51203100    0.12769100
 H                  3.07293200    2.54700400   -0.81580400
 H                  1.14221900    1.28716800   -1.86220800
 H                  2.05720100    0.24165200   -0.68957200
 H                  0.24662500   -1.04296000   -1.83167800
 H                 -0.06804700   -0.89794500   -0.04782300
 H                 -0.98302900    0.14757100   -1.22045900
 H                 -2.31604900   -2.77336000    1.66673800
 H                 -0.50808200   -2.77394500    1.85812600
 H                 -1.60901600   -1.39768400    3.62636500
 H                 -0.57923200   -0.37302300    2.53466900
 H                 -2.38719800   -0.37243800    2.34328100

