# SP Test

[No Title]

  0  1
C 0    2.291869   -0.812184    3.370392
C 0    2.123553   -1.929486    4.195970
C 0    1.472049   -3.075018    3.739096
C 0    0.965636   -3.140621    2.435898
C 0    1.133014   -2.021788    1.606159
C 0    1.783256   -0.882473    2.066699
N 0    0.705990   -1.898426    0.301914
C 0    0.983632   -0.744253   -0.268663
S 0    1.816361    0.294300    0.804851
C 0    0.656557   -0.425651   -1.525278
C 0   -0.060576    0.675752   -1.770635
S 0   -0.478258    1.127862   -3.093442
C 0   -1.195687    2.333434   -2.692727
C 0   -1.161719    2.492405   -1.365646
N 0   -0.516140    1.554198   -0.812698
C 0   -1.844329    3.219265   -3.455705
C 0   -2.454887    4.266670   -2.892028
C 0   -2.425020    4.422996   -1.564634
C 0   -1.776394    3.537199   -0.801601
C 0   -0.287331    1.422324    0.633385
C 0    0.529741    0.166376    0.906364
C 0   -0.021198   -2.997180   -0.414980
C 0   -0.351998   -2.547709   -1.832046
H 0    2.805886    0.090390    3.732534
H 0    2.512387   -1.903847    5.224635
H 0    1.354756   -3.937714    4.411403
H 0    0.451553   -4.042842    2.072972
H 0    0.977472   -1.069691   -2.357280
H 0   -1.875663    3.086333   -4.547193
H 0   -2.981790    4.999787   -3.520449
H 0   -2.934101    5.280410   -1.100225
H 0   -1.748463    3.668013    0.290236
H 0   -1.265937    1.349501    1.158547
H 0    0.267888    2.313176    1.003363
H 0    0.702983    0.066529    2.001255
H 0   -0.025477   -0.724475    0.536386
H 0    1.508348    0.239200    0.381202
H 0   -0.963225   -3.234394    0.128236
H 0    0.623468   -3.903595   -0.454815
H 0    0.590029   -2.310495   -2.375262
H 0   -0.996663   -1.641294   -1.792211
H 0   -0.891571   -3.362985   -2.363981

