# opt td am1

[No Title]

1 1
 C                 -3.79941900   -2.37167700   -0.19687700
 C                 -5.17418700   -2.16336200   -0.17363100
 C                 -5.69884600   -0.87573100    0.00197900
 C                 -4.86941700    0.22861700    0.16055600
 C                 -3.47840900    0.02907000    0.14427200
 C                 -2.94560600   -1.28239100   -0.04108400
 N                 -2.47507800    1.01077300    0.30558800
 C                 -1.21273800    0.46871600    0.20095200
 S                 -1.24635100   -1.23132900   -0.03618700
 C                  0.00013100    1.16141600    0.27897600
 C                  1.21302500    0.46874100    0.20093400
 N                  2.47530000    1.01107400    0.30526500
 C                  3.47878700    0.02953300    0.14410400
 C                  2.94616200   -1.28202900   -0.04112000
 S                  1.24689800   -1.23127600   -0.03598700
 C                  4.86977700    0.22924900    0.16034500
 C                  5.69933900   -0.87498800    0.00172300
 C                  5.17485000   -2.16270000   -0.17381800
 C                  3.80011500   -2.37120600   -0.19694000
 C                 -2.74883300    2.41967600    0.49386700
 C                 -2.77233200    3.24222600   -0.78363600
 C                  2.74846800    2.42004100    0.49385800
 C                  2.76889900    3.24324400   -0.78328600
 H                 -3.38978600   -3.38451700   -0.33714900
 H                 -5.85888000   -3.01826900   -0.29580400
 H                 -6.79269300   -0.73360000    0.01364400
 H                 -5.29918500    1.23304800    0.29075500
 H                  0.00017100    2.25793200    0.38880300
 H                  5.29947400    1.23370300    0.29059000
 H                  6.79316800   -0.73270200    0.01328700
 H                  5.85965600   -3.01751100   -0.29603100
 H                  3.39060700   -3.38410500   -0.33714500
 H                 -3.74673200    2.50449400    1.01464000
 H                 -1.96122900    2.83021700    1.19110800
 H                 -2.99849600    4.30308800   -0.51309500
 H                 -1.78583400    3.20901200   -1.30545000
 H                 -3.55973400    2.87935100   -1.48736700
 H                  1.96187800    2.82962400    1.19281500
 H                  3.74728200    2.50535600    1.01276400
 H                  2.99424700    4.30424100   -0.51260600
 H                  3.55557400    2.88164000   -1.48848100
 H                  1.78159400    3.20906000   -1.30350600

