# opt td upbepbe/6-311g scrf=(solvent=ethanol) sp test

[No Title]

0 2
 C                  6.11014700   -2.13764300   -0.00107800
 C                  6.64276800   -0.84855500   -0.00294300
 C                  5.80585900    0.27334700   -0.00322800
 C                  4.41897800    0.06161900   -0.00178600
 C                  3.89342200   -1.22552400    0.00008300
 C                  4.72721600   -2.35159200    0.00041000
 N                  3.44230800    1.03359600   -0.00178600
 C                  2.20544900    0.58090000   -0.00012800
 S                  2.17040100   -1.12884600    0.00155000
 C                  1.11746100    1.35797900    0.00020100
 C                 -0.09950100    0.80429400    0.00193700
 C                 -1.18748900    1.58137300    0.00226600
 C                  3.76388800    2.49871800   -0.00354300
 C                  2.47061700    3.30307000   -0.00306700
 C                 -2.40445200    1.02768900    0.00400200
 S                 -3.66258200    1.76646500    0.00453600
 C                 -4.57920600    0.63135400    0.00653300
 C                 -3.90912100   -0.52560500    0.00698200
 N                 -2.65898000   -0.32584800    0.00555300
 C                 -5.91615800    0.62951200   -0.00462400
 C                 -6.58303700   -0.52928400   -0.01044400
 C                 -5.91297000   -1.68613100   -0.01488400
 C                 -4.57601700   -1.68435700   -0.00372600
 C                 -1.63388600   -1.37945200    0.00555200
 C                 -2.30834200   -2.74496700    0.00753200
 H                  6.78998300   -3.00241200   -0.00077100
 H                  7.73424600   -0.71190300   -0.00420700
 H                  6.22324200    1.29108500   -0.00454100
 H                  4.30903600   -3.36900200    0.00178900
 H                  1.22357400    2.45284800   -0.00095500
 H                 -0.20561500   -0.29057500    0.00309400
 H                 -1.08137600    2.67624300    0.00111000
 H                  4.35620400    2.74908100    0.90488900
 H                  4.35500700    2.74753900   -0.91317800
 H                  2.70922900    4.39019000   -0.00437200
 H                  1.87830100    3.05270700   -0.91149900
 H                  1.87949800    3.05424900    0.90656800
 H                 -6.46745200    1.58138100   -0.00901600
 H                 -7.68303500   -0.53081700   -0.01157800
 H                 -6.46160800   -2.63945700   -0.02771700
 H                 -4.02473700   -2.63624400   -0.00335700
 H                 -1.00073900   -1.28030900   -0.90442800
 H                 -0.99831300   -1.27846200    0.91363800
 H                 -1.53219900   -3.54269600    0.00753100
 H                 -2.94148900   -2.84411100    0.91751300
 H                 -2.94391500   -2.84595700   -0.90055300

