# opt td b3lyp/6-31g(d)

[No Title]

1 1
 C                  7.83491800   -1.94666100    0.00000000
 C                  8.28616000   -0.62198900    0.00000000
 C                  7.39228900    0.44839400    0.00000000
 C                  6.02009000    0.17130900    0.00000000
 C                  5.57813000   -1.15865200    0.00000000
 C                  6.46913100   -2.22815200    0.00000000
 N                  4.96494200    1.10778200    0.00000000
 C                  3.71630600    0.54807900    0.00000000
 S                  3.82456800   -1.21795200    0.00000000
 C                  2.46922400    1.18399500    0.00000000
 C                  1.24696300    0.51003600    0.00000000
 C                  0.00000000    1.13287500    0.00000000
 C                  5.37907800    2.53916600    0.00000000
 C                  4.33718300    3.65055300    0.00000000
 C                 -1.20225900    0.41944900    0.00000000
 C                 -2.45171800    1.04538600    0.00000000
 C                 -3.77660200    0.57651400    0.00000000
 S                 -5.03887200    1.79442200    0.00000000
 C                 -6.28184300    0.56315300    0.00000000
 C                 -5.71844800   -0.72819200    0.00000000
 N                 -4.30199000   -0.68874800    0.00000000
 C                 -7.65842200    0.78082600    0.00000000
 C                 -8.50259000   -0.32419300    0.00000000
 C                 -7.96085900   -1.61424100    0.00000000
 C                 -6.58506200   -1.83221400    0.00000000
 C                 -3.34365300   -1.82345700    0.00000000
 C                 -3.86399200   -3.25588200    0.00000000
 H                  8.55012800   -2.76284400    0.00000000
 H                  9.35192200   -0.41678000    0.00000000
 H                  7.76901300    1.46374000    0.00000000
 H                  6.10974700   -3.25216200    0.00000000
 H                  2.43624700    2.26152300    0.00000000
 H                  1.24782700   -0.58062200    0.00000000
 H                 -0.03946400    2.22132100    0.00000000
 H                  6.01885100    2.65826700    0.88129800
 H                  6.01885100    2.65826700   -0.88129800
 H                  4.89280700    4.59414900    0.00000000
 H                  3.71015700    3.64498100   -0.89484700
 H                  3.71015700    3.64498100    0.89484700
 H                 -1.11455000   -0.66060100    0.00000000
 H                 -2.40468100    2.13282600    0.00000000
 H                 -8.05596400    1.79077500    0.00000000
 H                 -9.57851800   -0.18348100    0.00000000
 H                 -8.62203700   -2.47511800    0.00000000
 H                 -6.22369200   -2.84660300    0.00000000
 H                 -2.71238400   -1.68392800   -0.88402400
 H                 -2.71238400   -1.68392800    0.88402400
 H                 -2.98243000   -3.90557400    0.00000000
 H                 -4.44276800   -3.49629100    0.89455200
 H                 -4.44276800   -3.49629100   -0.89455200

