# opt=gdiis wb97xd/6-311g(d,p) scrf=(smd,solvent=ethanol)

[No Title]

1 1
 C                 -8.30293700   -2.27273200    0.88504400
 C                 -8.07108400   -3.64811500    0.88494400
 C                 -6.77290000   -4.15668400    0.76182500
 C                 -5.71548800   -3.24290500    0.63870700
 C                 -5.95226900   -1.87291100    0.63941300
 C                 -7.25002300   -1.35915900    0.76243500
 N                 -4.37866600   -3.55031800    0.50822600
 C                 -3.57500400   -2.51156300    0.40886300
 S                 -4.44855900   -1.04277900    0.47240800
 C                 -2.24727400   -2.59473000    0.27549900
 C                 -3.87589700   -4.96329300    0.48133500
 C                 -2.36069400   -4.96092000    0.32744500
 C                 -1.51372900   -1.48084800    0.18196900
 C                 -0.18599900   -1.56401500    0.04860400
 C                  0.54754600   -0.45013300   -0.04492600
 C                  1.87527500   -0.53330000   -0.17829000
 C                  2.60882000    0.58058200   -0.27182000
 C                  3.93655000    0.49741500   -0.40518400
 C                  4.67009500    1.61129600   -0.49871400
 S                  6.12103700    1.65068800   -0.64668400
 C                  6.29425500    3.09874900   -0.68905000
 C                  5.11819700    3.72536600   -0.58038400
 N                  4.16973300    2.89412700   -0.46987300
 C                  7.41918600    3.80784100   -0.82793300
 C                  7.36856700    5.14364200   -0.85328600
 C                  6.19208800    5.77008400   -0.74948900
 C                  5.06712200    5.06104900   -0.61060400
 C                  2.74896500    3.24514100   -0.33164700
 C                  2.59631200    4.76043500   -0.34208200
 H                 -9.33286200   -1.89911400    0.98335400
 H                 -8.91912000   -4.34183600    0.98285300
 H                 -6.58720500   -5.24089700    0.76160500
 H                 -7.43486900   -0.27480100    0.76263100
 H                 -1.75841600   -3.57958700    0.24272500
 H                 -4.33490400   -5.50396200   -0.37642900
 H                 -4.15091100   -5.47252100    1.43203100
 H                 -1.90168600   -4.42025200    1.18520800
 H                 -2.08568000   -4.45169300   -0.62325200
 H                 -1.98763900   -6.00934800    0.30749200
 H                 -2.00258700   -0.49599100    0.21474200
 H                  0.30285900   -2.54887200    0.01583100
 H                  0.05868700    0.53472400   -0.01215200
 H                  2.36413300   -1.51815800   -0.21106300
 H                  2.11996200    1.56543900   -0.23904700
 H                  4.42540800   -0.48744300   -0.43795800
 H                  8.38635400    3.29222500   -0.92133700
 H                  8.29492700    5.72722200   -0.95955100
 H                  6.14963500    6.86888500   -0.77835000
 H                  4.09954800    5.57661500   -0.52120200
 H                  2.35853700    2.83970700    0.62854000
 H                  2.17541800    2.80917300   -1.18002500
 H                  2.98674000    5.16586900   -1.30226900
 H                  3.16985900    5.19640300    0.50629600
 H                  1.52058700    5.02620200   -0.23742500

