# opt hf/sto-3g

[No Title]

1 1
 C                 -8.34792300   -2.28025100    0.00323800
 C                 -8.11607000   -3.65563400    0.00313800
 C                 -6.81165500   -4.16316200    0.00310400
 C                 -5.74799700   -3.24833900    0.00297000
 C                 -5.98480900   -1.87835000    0.00308400
 C                 -7.28879100   -1.36563900    0.00315300
 N                 -4.40457000   -3.55464800    0.00293900
 C                 -3.59587000   -2.51505100    0.00293900
 S                 -4.47263100   -1.04680300    0.00293900
 C                 -2.26138900   -2.59709000    0.00293900
 C                 -1.52310100   -1.48241500    0.00293900
 C                 -0.18862000   -1.56445400    0.00293900
 C                 -3.90044800   -4.96739700    0.00290800
 C                 -2.37745300   -4.96372200    0.00287800
 C                  0.54966800   -0.44977900    0.00293900
 C                  1.88414800   -0.53181800    0.00293900
 C                  2.62243600    0.58285700    0.00293900
 C                  3.95691700    0.50081800    0.00293900
 C                  4.69520500    1.61549300    0.00293900
 S                  6.15363900    1.65613600    0.00293900
 C                  6.32901200    3.10455800    0.00294500
 C                  5.14745800    3.73025700    0.00294500
 N                  4.19339300    2.89808100    0.00293900
 C                  7.46161100    3.81493400   -0.00953100
 C                  7.41267000    5.15101600   -0.01711800
 C                  6.23118800    5.77662200   -0.02200700
 C                  5.09855400    5.06630400   -0.00953200
 C                  2.76562900    3.24792500    0.00293400
 C                  2.61351600    4.76331000    0.00293600
 H                 -9.38283000   -1.90746600    0.00338600
 H                 -8.96906500   -4.35018400    0.00308500
 H                 -6.62596100   -5.24737500    0.00318000
 H                 -7.47363800   -0.28128100    0.00314100
 H                 -1.77087900   -3.58167100    0.00293900
 H                 -2.01361100   -0.49783400    0.00293900
 H                  0.30189000   -2.54903500    0.00293900
 H                 -4.26962600   -5.49249500    0.91216500
 H                 -4.27002700   -5.49298700   -0.90590300
 H                 -2.00339500   -6.01198200    0.00285400
 H                 -2.00827500   -4.43862400   -0.90638000
 H                 -2.00787400   -4.43813200    0.91168800
 H                  0.05915800    0.53480200    0.00293900
 H                  2.37465800   -1.51639900    0.00293900
 H                  2.13192600    1.56743800    0.00293900
 H                  4.44742700   -0.48376300    0.00293900
 H                  8.43370800    3.30014100   -0.01355300
 H                  8.34452600    5.73551500   -0.01933700
 H                  6.19092800    6.87579200   -0.03629400
 H                  4.12645800    5.58111400   -0.00953200
 H                  2.28106400    2.82696300   -0.90632700
 H                  2.28057600    2.82654300    0.91174100
 H                  1.53249500    5.02819200    0.00293100
 H                  3.09808200    5.18427300    0.91219700
 H                  3.09856900    5.18469200   -0.90587100

