# SP Test

[No Title]

  0  1
C 0    3.812159   -7.916692    8.978715
C 0    3.792414   -9.442876    8.978715
C 0    2.373911   -9.982147    8.776735
C 0    1.607740   -9.241645    7.719438
C 0    2.007667   -8.066073    7.212268
C 0    3.244492   -7.351684    7.674031
C 0    2.903349   -5.883203    7.890166
C 0    4.305889   -7.538569    6.597909
C 0    1.269570   -7.503820    6.249639
C 0    1.639295   -6.332336    5.721911
C 0    0.901198   -5.770083    4.759282
C 0    1.270923   -4.598599    4.231553
C 0    0.532826   -4.036346    3.268925
C 0    0.902551   -2.864862    2.741196
C 0    0.164454   -2.302609    1.778568
C 0    0.534179   -1.131125    1.250839
C 0   -0.203918   -0.568871    0.288211
C 0    0.165807    0.602613   -0.239518
C 0   -0.572290    1.164866   -1.202147
C 0   -0.202565    2.336350   -1.729875
C 0   -0.940662    2.898603   -2.692504
C 0   -0.570937    4.070087   -3.220232
C 0   -1.309034    4.632340   -4.182861
C 0   -0.939309    5.803824   -4.710590
C 0   -1.677406    6.366077   -5.673218
C 0   -1.307681    7.537561   -6.200947
C 0   -2.045778    8.099814   -7.163575
C 0   -3.282576    7.385408   -7.625306
C 0   -0.339198   -6.452221    4.272338
C 0   -1.075942   -2.984747    1.291623
C 0    1.037831    3.018488   -1.242931
C 0    0.301087    6.485962   -4.223645
C 0   -4.201383    8.265286   -8.476990
C 0   -3.403897    9.093968   -9.480451
C 0   -2.374124    9.981866   -8.776969
C 0   -1.645824    9.275386   -7.670724
C 0   -0.414547    9.913206   -7.106675
C 0   -4.058035    6.918741   -6.400392
C 0   -2.835223    6.218781   -8.496158
C 0    0.336768   -9.843856    7.206623
H 0    3.198616   -7.546823    9.830496
H 0    4.868292   -7.579481    9.076905
H 0    4.183676   -9.809879    9.953903
H 0    4.427314   -9.801987    8.138055
H 0    1.822097   -9.895876    9.739454
H 0    2.465146  -11.039566    8.441607
H 0    2.126479   -5.794943    8.682284
H 0    3.817999   -5.332896    8.205360
H 0    2.516456   -5.448825    6.941273
H 0    4.606832   -6.545097    6.196392
H 0    5.194135   -8.044951    7.037640
H 0    3.892566   -8.161926    5.773676
H 0    0.358124   -8.005057    5.891831
H 0    2.550741   -5.831099    6.079719
H 0    2.182369   -4.097362    4.589362
H 0   -0.378620   -4.537583    2.911117
H 0    1.813997   -2.363625    3.099005
H 0    1.445625   -0.629887    1.608647
H 0   -1.115364   -1.070109   -0.069598
H 0    1.077253    1.103850    0.118290
H 0   -1.483736    0.663629   -1.559955
H 0   -1.852108    2.397366   -3.050312
H 0    0.340509    4.571324   -2.862424
H 0   -2.220480    4.131103   -4.540669
H 0   -2.588852    5.864840   -6.031026
H 0   -0.396235    8.038798   -5.843139
H 0   -0.480148   -7.406991    4.826699
H 0   -1.217619   -5.790762    4.444434
H 0   -0.242092   -6.665966    3.184380
H 0   -1.216892   -3.939517    1.845985
H 0   -1.954363   -2.323287    1.463720
H 0   -0.978836   -3.198492    0.203665
H 0    1.512566    2.402306   -0.446869
H 0    1.749483    3.141923   -2.089739
H 0    0.773792    4.017903   -0.830352
H 0    0.775822    5.869780   -3.427583
H 0    1.012739    6.609397   -5.070453
H 0    0.037048    7.485378   -3.811066
H 0   -4.914442    7.614378   -9.030736
H 0   -4.745810    8.961792   -7.800789
H 0   -4.105234    9.739050  -10.055573
H 0   -2.861742    8.397435  -10.158447
H 0   -2.901199   10.863042   -8.347444
H 0   -1.616896   10.278450   -9.536845
H 0    0.002588    9.267884   -6.301487
H 0    0.342462   10.034816   -7.913469
H 0   -0.673126   10.910635   -6.685912
H 0   -4.363683    7.801659   -5.795576
H 0   -4.964496    6.361057   -6.726100
H 0   -3.412944    6.252796   -5.784644
H 0   -3.177717    5.262621   -8.040937
H 0   -3.276794    6.324381   -9.512344
H 0   -1.724782    6.216776   -8.571571
H 0   -0.105285   -9.176183    6.433596
H 0    0.553230  -10.838704    6.756966
H 0   -0.382239   -9.964359    8.047621

