%chk=C:\Users\86131\Desktop\gaussian\B1-1-hf.chk
# opt hf/sto-3g

[No Title]

0 1
 C                  3.81215900   -7.91669200    8.97871500
 C                  3.79241400   -9.44287600    8.97871500
 C                  2.37391100   -9.98214700    8.77673500
 C                  1.60774000   -9.24164500    7.71943800
 C                  2.00766700   -8.06607300    7.21226800
 C                  3.24449200   -7.35168400    7.67403100
 C                  2.90334900   -5.88320300    7.89016600
 C                  4.30588900   -7.53856900    6.59790900
 C                  1.26957000   -7.50382000    6.24963900
 C                  1.63929500   -6.33233600    5.72191100
 C                  0.90119800   -5.77008300    4.75928200
 C                  1.27092300   -4.59859900    4.23155300
 C                  0.53282600   -4.03634600    3.26892500
 C                  0.90255100   -2.86486200    2.74119600
 C                  0.16445400   -2.30260900    1.77856800
 C                  0.53417900   -1.13112500    1.25083900
 C                 -0.20391800   -0.56887100    0.28821100
 C                  0.16580700    0.60261300   -0.23951800
 C                 -0.57229000    1.16486600   -1.20214700
 C                 -0.20256500    2.33635000   -1.72987500
 C                 -0.94066200    2.89860300   -2.69250400
 C                 -0.57093700    4.07008700   -3.22023200
 C                 -1.30903400    4.63234000   -4.18286100
 C                 -0.93930900    5.80382400   -4.71059000
 C                 -1.67740600    6.36607700   -5.67321800
 C                 -1.30768100    7.53756100   -6.20094700
 C                 -2.04577800    8.09981400   -7.16357500
 C                 -3.28257600    7.38540800   -7.62530600
 C                 -0.33919800   -6.45222100    4.27233800
 C                 -1.07594200   -2.98474700    1.29162300
 C                  1.03783100    3.01848800   -1.24293100
 C                  0.30108700    6.48596200   -4.22364500
 C                 -4.20138300    8.26528600   -8.47699000
 C                 -3.40389700    9.09396800   -9.48045100
 C                 -2.37412400    9.98186600   -8.77696900
 C                 -1.64582400    9.27538600   -7.67072400
 C                 -0.41454700    9.91320600   -7.10667500
 C                 -4.05803500    6.91874100   -6.40039200
 C                 -2.83522300    6.21878100   -8.49615800
 C                  0.33676800   -9.84385600    7.20662300
 H                  3.19861600   -7.54682300    9.83049600
 H                  4.86829200   -7.57948100    9.07690500
 H                  4.18367600   -9.80987900    9.95390300
 H                  4.42731400   -9.80198700    8.13805500
 H                  1.82209700   -9.89587600    9.73945400
 H                  2.46514600  -11.03956600    8.44160700
 H                  2.12647900   -5.79494300    8.68228400
 H                  3.81799900   -5.33289600    8.20536000
 H                  2.51645600   -5.44882500    6.94127300
 H                  4.60683200   -6.54509700    6.19639200
 H                  5.19413500   -8.04495100    7.03764000
 H                  3.89256600   -8.16192600    5.77367600
 H                  0.35812400   -8.00505700    5.89183100
 H                  2.55074100   -5.83109900    6.07971900
 H                  2.18236900   -4.09736200    4.58936200
 H                 -0.37862000   -4.53758300    2.91111700
 H                  1.81399700   -2.36362500    3.09900500
 H                  1.44562500   -0.62988700    1.60864700
 H                 -1.11536400   -1.07010900   -0.06959800
 H                  1.07725300    1.10385000    0.11829000
 H                 -1.48373600    0.66362900   -1.55995500
 H                 -1.85210800    2.39736600   -3.05031200
 H                  0.34050900    4.57132400   -2.86242400
 H                 -2.22048000    4.13110300   -4.54066900
 H                 -2.58885200    5.86484000   -6.03102600
 H                 -0.39623500    8.03879800   -5.84313900
 H                 -0.48014800   -7.40699100    4.82669900
 H                 -1.21761900   -5.79076200    4.44443400
 H                 -0.24209200   -6.66596600    3.18438000
 H                 -1.21689200   -3.93951700    1.84598500
 H                 -1.95436300   -2.32328700    1.46372000
 H                 -0.97883600   -3.19849200    0.20366500
 H                  1.51256600    2.40230600   -0.44686900
 H                  1.74948300    3.14192300   -2.08973900
 H                  0.77379200    4.01790300   -0.83035200
 H                  0.77582200    5.86978000   -3.42758300
 H                  1.01273900    6.60939700   -5.07045300
 H                  0.03704800    7.48537800   -3.81106600
 H                 -4.91444200    7.61437800   -9.03073600
 H                 -4.74581000    8.96179200   -7.80078900
 H                 -4.10523400    9.73905000  -10.05557300
 H                 -2.86174200    8.39743500  -10.15844700
 H                 -2.90119900   10.86304200   -8.34744400
 H                 -1.61689600   10.27845000   -9.53684500
 H                  0.00258800    9.26788400   -6.30148700
 H                  0.34246200   10.03481600   -7.91346900
 H                 -0.67312600   10.91063500   -6.68591200
 H                 -4.36368300    7.80165900   -5.79557600
 H                 -4.96449600    6.36105700   -6.72610000
 H                 -3.41294400    6.25279600   -5.78464400
 H                 -3.17771700    5.26262100   -8.04093700
 H                 -3.27679400    6.32438100   -9.51234400
 H                 -1.72478200    6.21677600   -8.57157100
 H                 -0.10528500   -9.17618300    6.43359600
 H                  0.55323000  -10.83870400    6.75696600
 H                 -0.38223900   -9.96435900    8.04762100

