# opt td am1

[No Title]

0 1
 C                 13.83636700   -0.31746400   -0.78973600
 C                 13.85513400   -1.72737100   -0.24574200
 C                 13.22109000   -1.78229600    1.12695700
 C                 11.94733400   -1.01426400    1.20885800
 C                 11.58306000   -0.09616800    0.29255300
 C                 12.41495100    0.23610700   -0.92112900
 C                 12.50846400    1.75137600   -1.08290700
 C                 11.74765600   -0.34815300   -2.16274200
 C                 10.35013400    0.68303600    0.42586800
 C                  9.15365700    0.27943200   -0.02454300
 C                  7.92453700    1.05511800    0.09177400
 C                  6.73437100    0.42576500   -0.03713000
 C                  5.43614800    1.04483000    0.07952300
 C                  4.29301100    0.35384600   -0.09455100
 C                  2.95540500    0.91595500    0.01728300
 C                  1.88894500    0.08511900   -0.05866300
 C                  0.50213600    0.46200900    0.04630400
 C                 -0.50056300   -0.43458100   -0.06980100
 C                 -1.88751200   -0.05790500    0.03454600
 C                 -2.95265100   -0.89068600   -0.03804200
 C                 -4.29145400   -0.33030900    0.06777700
 C                 -5.43165100   -1.01526800   -0.14473800
 C                 -6.73197700   -0.40151900   -0.02307400
 C                 -7.91636800   -1.00358700   -0.27583400
 C                 -9.15079000   -0.25428000   -0.07433700
 C                -10.36243900   -0.81187900    0.06100900
 C                -11.59982100   -0.05126600    0.24908000
 C                -12.36131700    0.24395600   -1.01917500
 C                  8.06393000    2.50820100    0.35360000
 C                  2.85484000    2.38226300    0.21263300
 C                 -2.84831800   -2.35787200   -0.22501900
 C                 -8.04396600   -2.40340700   -0.74884900
 C                -13.79685000    0.68211300   -0.71689500
 C                -13.86804300    1.66184700    0.43165600
 C                -13.30777100    1.04889300    1.69645200
 C                -12.02705600    0.32224900    1.47102900
 C                -11.27379100    0.02411500    2.71451500
 C                -12.42050600   -1.00960200   -1.88868400
 C                -11.63988200    1.34294500   -1.79378800
 C                 11.12494100   -1.33219200    2.40265300
 H                 14.42648400    0.34826900   -0.10567500
 H                 14.33156000   -0.29227800   -1.79529400
 H                 14.91339800   -2.09325900   -0.18454400
 H                 13.30540200   -2.41174300   -0.94401600
 H                 13.93420800   -1.36200700    1.88856800
 H                 13.02999200   -2.85256800    1.40897800
 H                 12.90209600    2.21927000   -0.14942200
 H                 13.19516900    2.00085100   -1.92707100
 H                 11.50189400    2.18259700   -1.30166600
 H                 10.69253600    0.01169700   -2.23543400
 H                 12.30025800   -0.03042700   -3.07909800
 H                 11.74031600   -1.46290300   -2.11632600
 H                 10.48138100    1.65868300    0.92725100
 H                  9.04885500   -0.70646900   -0.51223500
 H                  6.72463400   -0.66120900   -0.24233600
 H                  5.41130400    2.11873100    0.33113100
 H                  4.33524200   -0.72413700   -0.33594700
 H                  2.06985700   -0.99607000   -0.21236700
 H                  0.27130500    1.52438400    0.23308700
 H                 -0.27021800   -1.49699200   -0.25719800
 H                 -2.06958500    1.02372900    0.18314700
 H                 -4.33684100    0.74097200    0.33669700
 H                 -5.40302100   -2.08397600   -0.41732800
 H                 -6.72955700    0.65143100    0.31596200
 H                 -9.03725000    0.84362300   -0.02394800
 H                -10.50334500   -1.90705600    0.02589700
 H                  8.95626200    2.91934600   -0.18231600
 H                  7.16760100    3.08060600    0.01210400
 H                  8.20042100    2.68715300    1.45016600
 H                  3.45569200    2.91587300   -0.56675000
 H                  1.80346900    2.75046000    0.14511700
 H                  3.25877400    2.66104900    1.21890600
 H                 -1.80168700   -2.72802600   -0.10963600
 H                 -3.48396900   -2.88852200    0.52824900
 H                 -3.20819000   -2.63801400   -1.24748900
 H                 -7.12072500   -2.75142600   -1.27250800
 H                 -8.23557500   -3.08382100    0.11913900
 H                 -8.89906900   -2.49901500   -1.46449800
 H                -14.23816900    1.14467300   -1.63791200
 H                -14.41061100   -0.22332300   -0.46616900
 H                -14.93412500    1.96484500    0.60254000
 H                -13.29421300    2.59086900    0.17515500
 H                -14.05246100    0.32323200    2.12550200
 H                -13.15011300    1.85298000    2.46464400
 H                -10.42486400   -0.67841800    2.52779200
 H                -10.85925100    0.97081900    3.14394900
 H                -11.95404800   -0.43484300    3.47482500
 H                -12.85398700   -1.86226800   -1.31395200
 H                -13.05818100   -0.81940800   -2.78513200
 H                -11.39676500   -1.29405100   -2.23224200
 H                -10.57629300    1.05094800   -1.97148200
 H                -12.13788800    1.50600700   -2.77939600
 H                -11.65438800    2.30056700   -1.22140000
 H                 10.28188400   -0.60975600    2.53086900
 H                 10.69514600   -2.36090700    2.30502200
 H                 11.75892500   -1.30540300    3.32395800

