# SP Test

[No Title]

  0  1
C 0   -0.146294   -2.206438    1.299993
C 0   -1.008828   -3.140239    2.090600
C 0   -0.661177   -1.074021    0.809995
C 0    0.109169   -0.240025    0.103889
C 0   -0.405713    0.892392   -0.386109
C 0    0.364633    1.726388   -1.092215
C 0   -0.150249    2.858805   -1.582213
C 0    1.292738   -2.540570    1.058024
C 0    1.803666    1.392256   -1.334185
C 0   -1.589282    3.192937   -1.340243
H 0   -2.038440   -2.723745    2.162727
H 0   -1.044431   -4.130450    1.583664
H 0   -0.585107   -3.260732    3.112711
H 0   -1.718582   -0.828500    0.987795
H 0    1.166575   -0.485546   -0.073911
H 0   -1.463118    1.137913   -0.208309
H 0    0.483544    3.544965   -2.163153
H 0    1.534140   -3.514386    1.539871
H 0    1.477059   -2.613383   -0.037190
H 0    1.936600   -1.742758    1.491275
H 0    2.045068    0.418440   -0.852338
H 0    1.987987    1.319443   -2.429398
H 0    2.447528    2.190068   -0.900933
H 0   -2.062161    2.384971   -0.738292
H 0   -1.657949    4.155980   -0.786527
H 0   -2.117376    3.286236   -2.315528

