%chk=C:\Users\86131\Desktop\??????\????\analysis\gaussian\trytry.chk
# hf/cc-pvqz geom=connectivity

Title Card Required

0 1
 C                 -6.68781719    0.69796953    0.00000000
 H                 -6.33116277   -0.31084047    0.00000000
 H                 -6.33114435    1.20236772    0.87365150
 H                 -6.33114435    1.20236772   -0.87365150
 H                 -7.75781719    0.69798272    0.00000000

 1 2 1.0 3 1.0 4 1.0 5 1.0
 2
 3
 4
 5

